0 3685
2401 3568
4802 3509
7203 3466
9604 3425
12005 3397
14406 3340
16807 3298
19208 3281
21609 3260
24010 3242
26411 3226
28812 3212
31213 3208
33614 3200
36015 3193
38416 3169
40817 3151
43218 3145
45619 3136
48020 3120
50421 3115
52822 3112
60025 3110
62426 3109
64827 3100
67228 3084
69629 3075
72030 3068
74431 3064
76832 3063
319333 3062
321734 3061
328937 3055
333739 3054
412972 3051
415373 3048
641067 3046
